
Gurobi 7.5.2 (linux64) logging started Sat Jul  7 16:20:22 2018

Changed value of parameter LogFile to result/ilp/simNo_5-n_100-m_40-s_4-minVAF_0.05-cov_10000-k_1-fn_0.10-fp_0.0001-na_0.15.ILP.gurobiSolverLog
   Prev: gurobi.log  Default: 
Changed value of parameter TimeLimit to 86400.0
   Prev: 1e+100  Min: 0.0  Max: 1e+100  Default: 1e+100
Optimize a model with 639293 rows, 10765 columns and 1940420 nonzeros
Variable types: 0 continuous, 10765 integer (10765 binary)
Coefficient statistics:
  Matrix range     [1e-05, 4e+00]
  Objective range  [9e-01, 9e+00]
  Bounds range     [1e+00, 1e+00]
  RHS range        [8e-02, 2e+00]
Found heuristic solution: objective -8065.663444
Presolve removed 137311 rows and 1059 columns (presolve time = 5s) ...
Presolve removed 137925 rows and 1059 columns (presolve time = 12s) ...
Presolve removed 199125 rows and 1671 columns (presolve time = 15s) ...
Presolve removed 199125 rows and 1671 columns
Presolve time: 18.21s
Presolved: 440168 rows, 9094 columns, 1323465 nonzeros
Variable types: 0 continuous, 9094 integer (9094 binary)
Presolved: 9094 rows, 449262 columns, 1332559 nonzeros

Presolve removed 9094 rows and 449262 columns

Root simplex log...

Iteration    Objective       Primal Inf.    Dual Inf.      Time
       0    8.9737911e+00   0.000000e+00   4.644000e+04     22s
   10244   -1.3930846e+02   0.000000e+00   0.000000e+00     24s
   10244   -1.3930846e+02   0.000000e+00   0.000000e+00     25s

Root relaxation: objective -1.393085e+02, 10244 iterations, 5.57 seconds
Total elapsed time = 35.04s
Total elapsed time = 41.05s

    Nodes    |    Current Node    |     Objective Bounds      |     Work
 Expl Unexpl |  Obj  Depth IntInf | Incumbent    BestBd   Gap | It/Node Time

     0     0 -139.30846    0  461 -8065.6634 -139.30846  98.3%     -   43s
H    0     0                    -191.6194597 -139.30846  27.3%     -   47s
H    0     0                    -191.5165370 -139.30846  27.3%     -   48s
H    0     0                    -166.1642051 -139.30846  16.2%     -   49s
     0     0 -143.06414    0  385 -166.16421 -143.06414  13.9%     -   54s
H    0     0                    -164.1506215 -143.06414  12.8%     -   58s
     0     0 -146.40186    0  488 -164.15062 -146.40186  10.8%     -   64s
     0     0 -146.40186    0  475 -164.15062 -146.40186  10.8%     -   70s
     0     0 -146.77180    0  537 -164.15062 -146.77180  10.6%     -   76s
     0     0 -146.77180    0  537 -164.15062 -146.77180  10.6%     -   81s
     0     0 -147.51168    0  481 -164.15062 -147.51168  10.1%     -   86s
H    0     0                    -161.9309745 -147.51168  8.90%     -   89s
     0     0 -147.51168    0  480 -161.93097 -147.51168  8.90%     -   90s
     0     0 -148.25157    0  481 -161.93097 -148.25157  8.45%     -   96s
     0     0 -148.25157    0  484 -161.93097 -148.25157  8.45%     -  101s
     0     0 -148.80648    0  533 -161.93097 -148.80648  8.10%     -  107s
     0     0 -148.99145    0  499 -161.93097 -148.99145  7.99%     -  112s
     0     0 -148.99145    0  502 -161.93097 -148.99145  7.99%     -  115s
     0     0 -149.20284    0  494 -161.93097 -149.20284  7.86%     -  120s
     0     0 -149.26050    0  523 -161.93097 -149.26050  7.82%     -  124s
     0     0 -149.36139    0  523 -161.93097 -149.36139  7.76%     -  127s
     0     0 -149.86373    0  508 -161.93097 -149.86373  7.45%     -  132s
     0     0 -149.88653    0  514 -161.93097 -149.88653  7.44%     -  137s
     0     0 -149.88653    0  514 -161.93097 -149.88653  7.44%     -  140s
     0     0 -149.89069    0  518 -161.93097 -149.89069  7.44%     -  144s
     0     0 -149.94405    0  517 -161.93097 -149.94405  7.40%     -  148s
     0     0 -150.06956    0  516 -161.93097 -150.06956  7.32%     -  151s
     0     0 -150.08278    0  515 -161.93097 -150.08278  7.32%     -  153s
     0     0 -150.08923    0  518 -161.93097 -150.08923  7.31%     -  155s
     0     0 -150.10800    0  514 -161.93097 -150.10800  7.30%     -  157s
     0     0 -150.10800    0  516 -161.93097 -150.10800  7.30%     -  160s
     0     0 -150.36023    0  555 -161.93097 -150.36023  7.15%     -  166s
     0     0 -150.59805    0  536 -161.93097 -150.59805  7.00%     -  171s
     0     0 -150.69318    0  538 -161.93097 -150.69318  6.94%     -  174s
     0     0 -150.69318    0  538 -161.93097 -150.69318  6.94%     -  176s
     0     0 -150.75660    0  540 -161.93097 -150.75660  6.90%     -  182s
     0     0 -150.75660    0  542 -161.93097 -150.75660  6.90%     -  186s
     0     0 -150.75660    0  508 -161.93097 -150.75660  6.90%     -  192s
     0     0 -150.75660    0  509 -161.93097 -150.75660  6.90%     -  196s
     0     0 -150.75660    0  478 -161.93097 -150.75660  6.90%     -  233s
     0     0 -150.75660    0  484 -161.93097 -150.75660  6.90%     -  237s
     0     0 -150.75660    0  479 -161.93097 -150.75660  6.90%     -  262s
     0     0 -150.75660    0  479 -161.93097 -150.75660  6.90%     -  266s
     0     0 -150.75660    0  480 -161.93097 -150.75660  6.90%     -  279s
     0     0 -150.75660    0  480 -161.93097 -150.75660  6.90%     -  291s
     0     2 -150.85863    0  480 -161.93097 -150.85863  6.84%     -  337s
     2     4 -153.63551    2  382 -161.93097 -151.08621  6.70%  1189  340s
     9     7 -160.82115    7   82 -161.93097 -151.08621  6.70%   308  345s
    14     4 -161.77276    1  243 -161.93097 -153.35919  5.29%   286  351s
*   20     6               6    -161.7249110 -154.43575  4.51%   221  355s
    26     8 -155.98465    6  239 -161.72491 -154.44789  4.50%   184  360s
H   27     4                    -156.8725088 -154.44789  1.55%   177  364s
    28     5 -156.13263    7  145 -156.87251 -154.44789  1.55%   195  365s
    32     2 -155.51048    4  425 -156.87251 -154.65286  1.41%   204  372s

Cutting planes:
  Gomory: 4
  MIR: 2
  Zero half: 61

Explored 35 nodes (42686 simplex iterations) in 373.94 seconds
Thread count was 1 (of 80 available processors)

Solution count 8: -156.873 -161.725 -161.931 ... -8065.66

Optimal solution found (tolerance 1.00e-04)
Best objective -1.568725088202e+02, best bound -1.568725088202e+02, gap 0.0000%
